NAME : gr96.tsp
TYPE : TOUR
DIMENSION : 96
TOUR_LENGTH : 584.5070749227457
TOUR_SECTION
1
30
31
32
36
37
34
35
38
79
80
81
82
83
91
90
89
87
84
85
86
88
78
92
93
95
94
96
66
67
68
76
77
75
74
73
72
71
61
64
65
28
27
63
62
60
59
70
69
57
56
55
51
39
40
41
42
43
49
50
52
53
58
54
25
24
23
26
22
21
19
18
20
17
16
15
14
13
12
10
11
48
47
46
45
44
33
29
2
3
4
5
6
8
9
7
-1
